c created by edge2cnf
p cnf 500 3100
-1 -2 0
-1 -3 0
-1 -4 0
-1 -5 0
-2 -3 0
-2 -4 0
-2 -5 0
-3 -4 0
-3 -5 0
-4 -5 0
1 2 3 4 5 0
-6 -7 0
-6 -8 0
-6 -9 0
-6 -10 0
-7 -8 0
-7 -9 0
-7 -10 0
-8 -9 0
-8 -10 0
-9 -10 0
6 7 8 9 10 0
-11 -12 0
-11 -13 0
-11 -14 0
-11 -15 0
-12 -13 0
-12 -14 0
-12 -15 0
-13 -14 0
-13 -15 0
-14 -15 0
11 12 13 14 15 0
-16 -17 0
-16 -18 0
-16 -19 0
-16 -20 0
-17 -18 0
-17 -19 0
-17 -20 0
-18 -19 0
-18 -20 0
-19 -20 0
16 17 18 19 20 0
-21 -22 0
-21 -23 0
-21 -24 0
-21 -25 0
-22 -23 0
-22 -24 0
-22 -25 0
-23 -24 0
-23 -25 0
-24 -25 0
21 22 23 24 25 0
-26 -27 0
-26 -28 0
-26 -29 0
-26 -30 0
-27 -28 0
-27 -29 0
-27 -30 0
-28 -29 0
-28 -30 0
-29 -30 0
26 27 28 29 30 0
-31 -32 0
-31 -33 0
-31 -34 0
-31 -35 0
-32 -33 0
-32 -34 0
-32 -35 0
-33 -34 0
-33 -35 0
-34 -35 0
31 32 33 34 35 0
-36 -37 0
-36 -38 0
-36 -39 0
-36 -40 0
-37 -38 0
-37 -39 0
-37 -40 0
-38 -39 0
-38 -40 0
-39 -40 0
36 37 38 39 40 0
-41 -42 0
-41 -43 0
-41 -44 0
-41 -45 0
-42 -43 0
-42 -44 0
-42 -45 0
-43 -44 0
-43 -45 0
-44 -45 0
41 42 43 44 45 0
-46 -47 0
-46 -48 0
-46 -49 0
-46 -50 0
-47 -48 0
-47 -49 0
-47 -50 0
-48 -49 0
-48 -50 0
-49 -50 0
46 47 48 49 50 0
-51 -52 0
-51 -53 0
-51 -54 0
-51 -55 0
-52 -53 0
-52 -54 0
-52 -55 0
-53 -54 0
-53 -55 0
-54 -55 0
51 52 53 54 55 0
-56 -57 0
-56 -58 0
-56 -59 0
-56 -60 0
-57 -58 0
-57 -59 0
-57 -60 0
-58 -59 0
-58 -60 0
-59 -60 0
56 57 58 59 60 0
-61 -62 0
-61 -63 0
-61 -64 0
-61 -65 0
-62 -63 0
-62 -64 0
-62 -65 0
-63 -64 0
-63 -65 0
-64 -65 0
61 62 63 64 65 0
-66 -67 0
-66 -68 0
-66 -69 0
-66 -70 0
-67 -68 0
-67 -69 0
-67 -70 0
-68 -69 0
-68 -70 0
-69 -70 0
66 67 68 69 70 0
-71 -72 0
-71 -73 0
-71 -74 0
-71 -75 0
-72 -73 0
-72 -74 0
-72 -75 0
-73 -74 0
-73 -75 0
-74 -75 0
71 72 73 74 75 0
-76 -77 0
-76 -78 0
-76 -79 0
-76 -80 0
-77 -78 0
-77 -79 0
-77 -80 0
-78 -79 0
-78 -80 0
-79 -80 0
76 77 78 79 80 0
-81 -82 0
-81 -83 0
-81 -84 0
-81 -85 0
-82 -83 0
-82 -84 0
-82 -85 0
-83 -84 0
-83 -85 0
-84 -85 0
81 82 83 84 85 0
-86 -87 0
-86 -88 0
-86 -89 0
-86 -90 0
-87 -88 0
-87 -89 0
-87 -90 0
-88 -89 0
-88 -90 0
-89 -90 0
86 87 88 89 90 0
-91 -92 0
-91 -93 0
-91 -94 0
-91 -95 0
-92 -93 0
-92 -94 0
-92 -95 0
-93 -94 0
-93 -95 0
-94 -95 0
91 92 93 94 95 0
-96 -97 0
-96 -98 0
-96 -99 0
-96 -100 0
-97 -98 0
-97 -99 0
-97 -100 0
-98 -99 0
-98 -100 0
-99 -100 0
96 97 98 99 100 0
-101 -102 0
-101 -103 0
-101 -104 0
-101 -105 0
-102 -103 0
-102 -104 0
-102 -105 0
-103 -104 0
-103 -105 0
-104 -105 0
101 102 103 104 105 0
-106 -107 0
-106 -108 0
-106 -109 0
-106 -110 0
-107 -108 0
-107 -109 0
-107 -110 0
-108 -109 0
-108 -110 0
-109 -110 0
106 107 108 109 110 0
-111 -112 0
-111 -113 0
-111 -114 0
-111 -115 0
-112 -113 0
-112 -114 0
-112 -115 0
-113 -114 0
-113 -115 0
-114 -115 0
111 112 113 114 115 0
-116 -117 0
-116 -118 0
-116 -119 0
-116 -120 0
-117 -118 0
-117 -119 0
-117 -120 0
-118 -119 0
-118 -120 0
-119 -120 0
116 117 118 119 120 0
-121 -122 0
-121 -123 0
-121 -124 0
-121 -125 0
-122 -123 0
-122 -124 0
-122 -125 0
-123 -124 0
-123 -125 0
-124 -125 0
121 122 123 124 125 0
-126 -127 0
-126 -128 0
-126 -129 0
-126 -130 0
-127 -128 0
-127 -129 0
-127 -130 0
-128 -129 0
-128 -130 0
-129 -130 0
126 127 128 129 130 0
-131 -132 0
-131 -133 0
-131 -134 0
-131 -135 0
-132 -133 0
-132 -134 0
-132 -135 0
-133 -134 0
-133 -135 0
-134 -135 0
131 132 133 134 135 0
-136 -137 0
-136 -138 0
-136 -139 0
-136 -140 0
-137 -138 0
-137 -139 0
-137 -140 0
-138 -139 0
-138 -140 0
-139 -140 0
136 137 138 139 140 0
-141 -142 0
-141 -143 0
-141 -144 0
-141 -145 0
-142 -143 0
-142 -144 0
-142 -145 0
-143 -144 0
-143 -145 0
-144 -145 0
141 142 143 144 145 0
-146 -147 0
-146 -148 0
-146 -149 0
-146 -150 0
-147 -148 0
-147 -149 0
-147 -150 0
-148 -149 0
-148 -150 0
-149 -150 0
146 147 148 149 150 0
-151 -152 0
-151 -153 0
-151 -154 0
-151 -155 0
-152 -153 0
-152 -154 0
-152 -155 0
-153 -154 0
-153 -155 0
-154 -155 0
151 152 153 154 155 0
-156 -157 0
-156 -158 0
-156 -159 0
-156 -160 0
-157 -158 0
-157 -159 0
-157 -160 0
-158 -159 0
-158 -160 0
-159 -160 0
156 157 158 159 160 0
-161 -162 0
-161 -163 0
-161 -164 0
-161 -165 0
-162 -163 0
-162 -164 0
-162 -165 0
-163 -164 0
-163 -165 0
-164 -165 0
161 162 163 164 165 0
-166 -167 0
-166 -168 0
-166 -169 0
-166 -170 0
-167 -168 0
-167 -169 0
-167 -170 0
-168 -169 0
-168 -170 0
-169 -170 0
166 167 168 169 170 0
-171 -172 0
-171 -173 0
-171 -174 0
-171 -175 0
-172 -173 0
-172 -174 0
-172 -175 0
-173 -174 0
-173 -175 0
-174 -175 0
171 172 173 174 175 0
-176 -177 0
-176 -178 0
-176 -179 0
-176 -180 0
-177 -178 0
-177 -179 0
-177 -180 0
-178 -179 0
-178 -180 0
-179 -180 0
176 177 178 179 180 0
-181 -182 0
-181 -183 0
-181 -184 0
-181 -185 0
-182 -183 0
-182 -184 0
-182 -185 0
-183 -184 0
-183 -185 0
-184 -185 0
181 182 183 184 185 0
-186 -187 0
-186 -188 0
-186 -189 0
-186 -190 0
-187 -188 0
-187 -189 0
-187 -190 0
-188 -189 0
-188 -190 0
-189 -190 0
186 187 188 189 190 0
-191 -192 0
-191 -193 0
-191 -194 0
-191 -195 0
-192 -193 0
-192 -194 0
-192 -195 0
-193 -194 0
-193 -195 0
-194 -195 0
191 192 193 194 195 0
-196 -197 0
-196 -198 0
-196 -199 0
-196 -200 0
-197 -198 0
-197 -199 0
-197 -200 0
-198 -199 0
-198 -200 0
-199 -200 0
196 197 198 199 200 0
-201 -202 0
-201 -203 0
-201 -204 0
-201 -205 0
-202 -203 0
-202 -204 0
-202 -205 0
-203 -204 0
-203 -205 0
-204 -205 0
201 202 203 204 205 0
-206 -207 0
-206 -208 0
-206 -209 0
-206 -210 0
-207 -208 0
-207 -209 0
-207 -210 0
-208 -209 0
-208 -210 0
-209 -210 0
206 207 208 209 210 0
-211 -212 0
-211 -213 0
-211 -214 0
-211 -215 0
-212 -213 0
-212 -214 0
-212 -215 0
-213 -214 0
-213 -215 0
-214 -215 0
211 212 213 214 215 0
-216 -217 0
-216 -218 0
-216 -219 0
-216 -220 0
-217 -218 0
-217 -219 0
-217 -220 0
-218 -219 0
-218 -220 0
-219 -220 0
216 217 218 219 220 0
-221 -222 0
-221 -223 0
-221 -224 0
-221 -225 0
-222 -223 0
-222 -224 0
-222 -225 0
-223 -224 0
-223 -225 0
-224 -225 0
221 222 223 224 225 0
-226 -227 0
-226 -228 0
-226 -229 0
-226 -230 0
-227 -228 0
-227 -229 0
-227 -230 0
-228 -229 0
-228 -230 0
-229 -230 0
226 227 228 229 230 0
-231 -232 0
-231 -233 0
-231 -234 0
-231 -235 0
-232 -233 0
-232 -234 0
-232 -235 0
-233 -234 0
-233 -235 0
-234 -235 0
231 232 233 234 235 0
-236 -237 0
-236 -238 0
-236 -239 0
-236 -240 0
-237 -238 0
-237 -239 0
-237 -240 0
-238 -239 0
-238 -240 0
-239 -240 0
236 237 238 239 240 0
-241 -242 0
-241 -243 0
-241 -244 0
-241 -245 0
-242 -243 0
-242 -244 0
-242 -245 0
-243 -244 0
-243 -245 0
-244 -245 0
241 242 243 244 245 0
-246 -247 0
-246 -248 0
-246 -249 0
-246 -250 0
-247 -248 0
-247 -249 0
-247 -250 0
-248 -249 0
-248 -250 0
-249 -250 0
246 247 248 249 250 0
-251 -252 0
-251 -253 0
-251 -254 0
-251 -255 0
-252 -253 0
-252 -254 0
-252 -255 0
-253 -254 0
-253 -255 0
-254 -255 0
251 252 253 254 255 0
-256 -257 0
-256 -258 0
-256 -259 0
-256 -260 0
-257 -258 0
-257 -259 0
-257 -260 0
-258 -259 0
-258 -260 0
-259 -260 0
256 257 258 259 260 0
-261 -262 0
-261 -263 0
-261 -264 0
-261 -265 0
-262 -263 0
-262 -264 0
-262 -265 0
-263 -264 0
-263 -265 0
-264 -265 0
261 262 263 264 265 0
-266 -267 0
-266 -268 0
-266 -269 0
-266 -270 0
-267 -268 0
-267 -269 0
-267 -270 0
-268 -269 0
-268 -270 0
-269 -270 0
266 267 268 269 270 0
-271 -272 0
-271 -273 0
-271 -274 0
-271 -275 0
-272 -273 0
-272 -274 0
-272 -275 0
-273 -274 0
-273 -275 0
-274 -275 0
271 272 273 274 275 0
-276 -277 0
-276 -278 0
-276 -279 0
-276 -280 0
-277 -278 0
-277 -279 0
-277 -280 0
-278 -279 0
-278 -280 0
-279 -280 0
276 277 278 279 280 0
-281 -282 0
-281 -283 0
-281 -284 0
-281 -285 0
-282 -283 0
-282 -284 0
-282 -285 0
-283 -284 0
-283 -285 0
-284 -285 0
281 282 283 284 285 0
-286 -287 0
-286 -288 0
-286 -289 0
-286 -290 0
-287 -288 0
-287 -289 0
-287 -290 0
-288 -289 0
-288 -290 0
-289 -290 0
286 287 288 289 290 0
-291 -292 0
-291 -293 0
-291 -294 0
-291 -295 0
-292 -293 0
-292 -294 0
-292 -295 0
-293 -294 0
-293 -295 0
-294 -295 0
291 292 293 294 295 0
-296 -297 0
-296 -298 0
-296 -299 0
-296 -300 0
-297 -298 0
-297 -299 0
-297 -300 0
-298 -299 0
-298 -300 0
-299 -300 0
296 297 298 299 300 0
-301 -302 0
-301 -303 0
-301 -304 0
-301 -305 0
-302 -303 0
-302 -304 0
-302 -305 0
-303 -304 0
-303 -305 0
-304 -305 0
301 302 303 304 305 0
-306 -307 0
-306 -308 0
-306 -309 0
-306 -310 0
-307 -308 0
-307 -309 0
-307 -310 0
-308 -309 0
-308 -310 0
-309 -310 0
306 307 308 309 310 0
-311 -312 0
-311 -313 0
-311 -314 0
-311 -315 0
-312 -313 0
-312 -314 0
-312 -315 0
-313 -314 0
-313 -315 0
-314 -315 0
311 312 313 314 315 0
-316 -317 0
-316 -318 0
-316 -319 0
-316 -320 0
-317 -318 0
-317 -319 0
-317 -320 0
-318 -319 0
-318 -320 0
-319 -320 0
316 317 318 319 320 0
-321 -322 0
-321 -323 0
-321 -324 0
-321 -325 0
-322 -323 0
-322 -324 0
-322 -325 0
-323 -324 0
-323 -325 0
-324 -325 0
321 322 323 324 325 0
-326 -327 0
-326 -328 0
-326 -329 0
-326 -330 0
-327 -328 0
-327 -329 0
-327 -330 0
-328 -329 0
-328 -330 0
-329 -330 0
326 327 328 329 330 0
-331 -332 0
-331 -333 0
-331 -334 0
-331 -335 0
-332 -333 0
-332 -334 0
-332 -335 0
-333 -334 0
-333 -335 0
-334 -335 0
331 332 333 334 335 0
-336 -337 0
-336 -338 0
-336 -339 0
-336 -340 0
-337 -338 0
-337 -339 0
-337 -340 0
-338 -339 0
-338 -340 0
-339 -340 0
336 337 338 339 340 0
-341 -342 0
-341 -343 0
-341 -344 0
-341 -345 0
-342 -343 0
-342 -344 0
-342 -345 0
-343 -344 0
-343 -345 0
-344 -345 0
341 342 343 344 345 0
-346 -347 0
-346 -348 0
-346 -349 0
-346 -350 0
-347 -348 0
-347 -349 0
-347 -350 0
-348 -349 0
-348 -350 0
-349 -350 0
346 347 348 349 350 0
-351 -352 0
-351 -353 0
-351 -354 0
-351 -355 0
-352 -353 0
-352 -354 0
-352 -355 0
-353 -354 0
-353 -355 0
-354 -355 0
351 352 353 354 355 0
-356 -357 0
-356 -358 0
-356 -359 0
-356 -360 0
-357 -358 0
-357 -359 0
-357 -360 0
-358 -359 0
-358 -360 0
-359 -360 0
356 357 358 359 360 0
-361 -362 0
-361 -363 0
-361 -364 0
-361 -365 0
-362 -363 0
-362 -364 0
-362 -365 0
-363 -364 0
-363 -365 0
-364 -365 0
361 362 363 364 365 0
-366 -367 0
-366 -368 0
-366 -369 0
-366 -370 0
-367 -368 0
-367 -369 0
-367 -370 0
-368 -369 0
-368 -370 0
-369 -370 0
366 367 368 369 370 0
-371 -372 0
-371 -373 0
-371 -374 0
-371 -375 0
-372 -373 0
-372 -374 0
-372 -375 0
-373 -374 0
-373 -375 0
-374 -375 0
371 372 373 374 375 0
-376 -377 0
-376 -378 0
-376 -379 0
-376 -380 0
-377 -378 0
-377 -379 0
-377 -380 0
-378 -379 0
-378 -380 0
-379 -380 0
376 377 378 379 380 0
-381 -382 0
-381 -383 0
-381 -384 0
-381 -385 0
-382 -383 0
-382 -384 0
-382 -385 0
-383 -384 0
-383 -385 0
-384 -385 0
381 382 383 384 385 0
-386 -387 0
-386 -388 0
-386 -389 0
-386 -390 0
-387 -388 0
-387 -389 0
-387 -390 0
-388 -389 0
-388 -390 0
-389 -390 0
386 387 388 389 390 0
-391 -392 0
-391 -393 0
-391 -394 0
-391 -395 0
-392 -393 0
-392 -394 0
-392 -395 0
-393 -394 0
-393 -395 0
-394 -395 0
391 392 393 394 395 0
-396 -397 0
-396 -398 0
-396 -399 0
-396 -400 0
-397 -398 0
-397 -399 0
-397 -400 0
-398 -399 0
-398 -400 0
-399 -400 0
396 397 398 399 400 0
-401 -402 0
-401 -403 0
-401 -404 0
-401 -405 0
-402 -403 0
-402 -404 0
-402 -405 0
-403 -404 0
-403 -405 0
-404 -405 0
401 402 403 404 405 0
-406 -407 0
-406 -408 0
-406 -409 0
-406 -410 0
-407 -408 0
-407 -409 0
-407 -410 0
-408 -409 0
-408 -410 0
-409 -410 0
406 407 408 409 410 0
-411 -412 0
-411 -413 0
-411 -414 0
-411 -415 0
-412 -413 0
-412 -414 0
-412 -415 0
-413 -414 0
-413 -415 0
-414 -415 0
411 412 413 414 415 0
-416 -417 0
-416 -418 0
-416 -419 0
-416 -420 0
-417 -418 0
-417 -419 0
-417 -420 0
-418 -419 0
-418 -420 0
-419 -420 0
416 417 418 419 420 0
-421 -422 0
-421 -423 0
-421 -424 0
-421 -425 0
-422 -423 0
-422 -424 0
-422 -425 0
-423 -424 0
-423 -425 0
-424 -425 0
421 422 423 424 425 0
-426 -427 0
-426 -428 0
-426 -429 0
-426 -430 0
-427 -428 0
-427 -429 0
-427 -430 0
-428 -429 0
-428 -430 0
-429 -430 0
426 427 428 429 430 0
-431 -432 0
-431 -433 0
-431 -434 0
-431 -435 0
-432 -433 0
-432 -434 0
-432 -435 0
-433 -434 0
-433 -435 0
-434 -435 0
431 432 433 434 435 0
-436 -437 0
-436 -438 0
-436 -439 0
-436 -440 0
-437 -438 0
-437 -439 0
-437 -440 0
-438 -439 0
-438 -440 0
-439 -440 0
436 437 438 439 440 0
-441 -442 0
-441 -443 0
-441 -444 0
-441 -445 0
-442 -443 0
-442 -444 0
-442 -445 0
-443 -444 0
-443 -445 0
-444 -445 0
441 442 443 444 445 0
-446 -447 0
-446 -448 0
-446 -449 0
-446 -450 0
-447 -448 0
-447 -449 0
-447 -450 0
-448 -449 0
-448 -450 0
-449 -450 0
446 447 448 449 450 0
-451 -452 0
-451 -453 0
-451 -454 0
-451 -455 0
-452 -453 0
-452 -454 0
-452 -455 0
-453 -454 0
-453 -455 0
-454 -455 0
451 452 453 454 455 0
-456 -457 0
-456 -458 0
-456 -459 0
-456 -460 0
-457 -458 0
-457 -459 0
-457 -460 0
-458 -459 0
-458 -460 0
-459 -460 0
456 457 458 459 460 0
-461 -462 0
-461 -463 0
-461 -464 0
-461 -465 0
-462 -463 0
-462 -464 0
-462 -465 0
-463 -464 0
-463 -465 0
-464 -465 0
461 462 463 464 465 0
-466 -467 0
-466 -468 0
-466 -469 0
-466 -470 0
-467 -468 0
-467 -469 0
-467 -470 0
-468 -469 0
-468 -470 0
-469 -470 0
466 467 468 469 470 0
-471 -472 0
-471 -473 0
-471 -474 0
-471 -475 0
-472 -473 0
-472 -474 0
-472 -475 0
-473 -474 0
-473 -475 0
-474 -475 0
471 472 473 474 475 0
-476 -477 0
-476 -478 0
-476 -479 0
-476 -480 0
-477 -478 0
-477 -479 0
-477 -480 0
-478 -479 0
-478 -480 0
-479 -480 0
476 477 478 479 480 0
-481 -482 0
-481 -483 0
-481 -484 0
-481 -485 0
-482 -483 0
-482 -484 0
-482 -485 0
-483 -484 0
-483 -485 0
-484 -485 0
481 482 483 484 485 0
-486 -487 0
-486 -488 0
-486 -489 0
-486 -490 0
-487 -488 0
-487 -489 0
-487 -490 0
-488 -489 0
-488 -490 0
-489 -490 0
486 487 488 489 490 0
-491 -492 0
-491 -493 0
-491 -494 0
-491 -495 0
-492 -493 0
-492 -494 0
-492 -495 0
-493 -494 0
-493 -495 0
-494 -495 0
491 492 493 494 495 0
-496 -497 0
-496 -498 0
-496 -499 0
-496 -500 0
-497 -498 0
-497 -499 0
-497 -500 0
-498 -499 0
-498 -500 0
-499 -500 0
496 497 498 499 500 0
-11 -16 0
-12 -17 0
-13 -18 0
-14 -19 0
-15 -20 0
-16 -21 0
-17 -22 0
-18 -23 0
-19 -24 0
-20 -25 0
-41 -56 0
-42 -57 0
-43 -58 0
-44 -59 0
-45 -60 0
-46 -66 0
-47 -67 0
-48 -68 0
-49 -69 0
-50 -70 0
-71 -81 0
-72 -82 0
-73 -83 0
-74 -84 0
-75 -85 0
-91 -106 0
-92 -107 0
-93 -108 0
-94 -109 0
-95 -110 0
-101 -116 0
-102 -117 0
-103 -118 0
-104 -119 0
-105 -120 0
-136 -146 0
-137 -147 0
-138 -148 0
-139 -149 0
-140 -150 0
-156 -166 0
-157 -167 0
-158 -168 0
-159 -169 0
-160 -170 0
-176 -186 0
-177 -187 0
-178 -188 0
-179 -189 0
-180 -190 0
-181 -186 0
-182 -187 0
-183 -188 0
-184 -189 0
-185 -190 0
-181 -201 0
-182 -202 0
-183 -203 0
-184 -204 0
-185 -205 0
-196 -201 0
-197 -202 0
-198 -203 0
-199 -204 0
-200 -205 0
-226 -231 0
-227 -232 0
-228 -233 0
-229 -234 0
-230 -235 0
-226 -236 0
-227 -237 0
-228 -238 0
-229 -239 0
-230 -240 0
-231 -236 0
-232 -237 0
-233 -238 0
-234 -239 0
-235 -240 0
-266 -271 0
-267 -272 0
-268 -273 0
-269 -274 0
-270 -275 0
-326 -331 0
-327 -332 0
-328 -333 0
-329 -334 0
-330 -335 0
-346 -351 0
-347 -352 0
-348 -353 0
-349 -354 0
-350 -355 0
-356 -376 0
-357 -377 0
-358 -378 0
-359 -379 0
-360 -380 0
-361 -366 0
-362 -367 0
-363 -368 0
-364 -369 0
-365 -370 0
-376 -386 0
-377 -387 0
-378 -388 0
-379 -389 0
-380 -390 0
-381 -391 0
-382 -392 0
-383 -393 0
-384 -394 0
-385 -395 0
-386 -396 0
-387 -397 0
-388 -398 0
-389 -399 0
-390 -400 0
-391 -411 0
-392 -412 0
-393 -413 0
-394 -414 0
-395 -415 0
-401 -406 0
-402 -407 0
-403 -408 0
-404 -409 0
-405 -410 0
-401 -411 0
-402 -412 0
-403 -413 0
-404 -414 0
-405 -415 0
-421 -441 0
-422 -442 0
-423 -443 0
-424 -444 0
-425 -445 0
-431 -441 0
-432 -442 0
-433 -443 0
-434 -444 0
-435 -445 0
-431 -451 0
-432 -452 0
-433 -453 0
-434 -454 0
-435 -455 0
-441 -451 0
-442 -452 0
-443 -453 0
-444 -454 0
-445 -455 0
-446 -451 0
-447 -452 0
-448 -453 0
-449 -454 0
-450 -455 0
-461 -471 0
-462 -472 0
-463 -473 0
-464 -474 0
-465 -475 0
-1 -101 0
-2 -102 0
-3 -103 0
-4 -104 0
-5 -105 0
-1 -106 0
-2 -107 0
-3 -108 0
-4 -109 0
-5 -110 0
-1 -116 0
-2 -117 0
-3 -118 0
-4 -119 0
-5 -120 0
-1 -156 0
-2 -157 0
-3 -158 0
-4 -159 0
-5 -160 0
-1 -181 0
-2 -182 0
-3 -183 0
-4 -184 0
-5 -185 0
-1 -211 0
-2 -212 0
-3 -213 0
-4 -214 0
-5 -215 0
-1 -226 0
-2 -227 0
-3 -228 0
-4 -229 0
-5 -230 0
-1 -316 0
-2 -317 0
-3 -318 0
-4 -319 0
-5 -320 0
-1 -361 0
-2 -362 0
-3 -363 0
-4 -364 0
-5 -365 0
-1 -381 0
-2 -382 0
-3 -383 0
-4 -384 0
-5 -385 0
-1 -391 0
-2 -392 0
-3 -393 0
-4 -394 0
-5 -395 0
-1 -406 0
-2 -407 0
-3 -408 0
-4 -409 0
-5 -410 0
-6 -66 0
-7 -67 0
-8 -68 0
-9 -69 0
-10 -70 0
-6 -81 0
-7 -82 0
-8 -83 0
-9 -84 0
-10 -85 0
-6 -116 0
-7 -117 0
-8 -118 0
-9 -119 0
-10 -120 0
-6 -146 0
-7 -147 0
-8 -148 0
-9 -149 0
-10 -150 0
-6 -301 0
-7 -302 0
-8 -303 0
-9 -304 0
-10 -305 0
-11 -96 0
-12 -97 0
-13 -98 0
-14 -99 0
-15 -100 0
-11 -151 0
-12 -152 0
-13 -153 0
-14 -154 0
-15 -155 0
-11 -196 0
-12 -197 0
-13 -198 0
-14 -199 0
-15 -200 0
-11 -221 0
-12 -222 0
-13 -223 0
-14 -224 0
-15 -225 0
-11 -246 0
-12 -247 0
-13 -248 0
-14 -249 0
-15 -250 0
-11 -266 0
-12 -267 0
-13 -268 0
-14 -269 0
-15 -270 0
-11 -276 0
-12 -277 0
-13 -278 0
-14 -279 0
-15 -280 0
-11 -346 0
-12 -347 0
-13 -348 0
-14 -349 0
-15 -350 0
-11 -411 0
-12 -412 0
-13 -413 0
-14 -414 0
-15 -415 0
-16 -176 0
-17 -177 0
-18 -178 0
-19 -179 0
-20 -180 0
-16 -186 0
-17 -187 0
-18 -188 0
-19 -189 0
-20 -190 0
-16 -226 0
-17 -227 0
-18 -228 0
-19 -229 0
-20 -230 0
-16 -261 0
-17 -262 0
-18 -263 0
-19 -264 0
-20 -265 0
-16 -301 0
-17 -302 0
-18 -303 0
-19 -304 0
-20 -305 0
-16 -311 0
-17 -312 0
-18 -313 0
-19 -314 0
-20 -315 0
-16 -356 0
-17 -357 0
-18 -358 0
-19 -359 0
-20 -360 0
-16 -401 0
-17 -402 0
-18 -403 0
-19 -404 0
-20 -405 0
-16 -411 0
-17 -412 0
-18 -413 0
-19 -414 0
-20 -415 0
-16 -436 0
-17 -437 0
-18 -438 0
-19 -439 0
-20 -440 0
-21 -81 0
-22 -82 0
-23 -83 0
-24 -84 0
-25 -85 0
-21 -296 0
-22 -297 0
-23 -298 0
-24 -299 0
-25 -300 0
-21 -346 0
-22 -347 0
-23 -348 0
-24 -349 0
-25 -350 0
-21 -366 0
-22 -367 0
-23 -368 0
-24 -369 0
-25 -370 0
-21 -451 0
-22 -452 0
-23 -453 0
-24 -454 0
-25 -455 0
-26 -71 0
-27 -72 0
-28 -73 0
-29 -74 0
-30 -75 0
-26 -91 0
-27 -92 0
-28 -93 0
-29 -94 0
-30 -95 0
-26 -101 0
-27 -102 0
-28 -103 0
-29 -104 0
-30 -105 0
-26 -196 0
-27 -197 0
-28 -198 0
-29 -199 0
-30 -200 0
-26 -206 0
-27 -207 0
-28 -208 0
-29 -209 0
-30 -210 0
-26 -256 0
-27 -257 0
-28 -258 0
-29 -259 0
-30 -260 0
-26 -406 0
-27 -407 0
-28 -408 0
-29 -409 0
-30 -410 0
-31 -66 0
-32 -67 0
-33 -68 0
-34 -69 0
-35 -70 0
-31 -336 0
-32 -337 0
-33 -338 0
-34 -339 0
-35 -340 0
-31 -341 0
-32 -342 0
-33 -343 0
-34 -344 0
-35 -345 0
-31 -411 0
-32 -412 0
-33 -413 0
-34 -414 0
-35 -415 0
-31 -451 0
-32 -452 0
-33 -453 0
-34 -454 0
-35 -455 0
-36 -61 0
-37 -62 0
-38 -63 0
-39 -64 0
-40 -65 0
-36 -161 0
-37 -162 0
-38 -163 0
-39 -164 0
-40 -165 0
-36 -231 0
-37 -232 0
-38 -233 0
-39 -234 0
-40 -235 0
-36 -266 0
-37 -267 0
-38 -268 0
-39 -269 0
-40 -270 0
-36 -331 0
-37 -332 0
-38 -333 0
-39 -334 0
-40 -335 0
-36 -351 0
-37 -352 0
-38 -353 0
-39 -354 0
-40 -355 0
-36 -416 0
-37 -417 0
-38 -418 0
-39 -419 0
-40 -420 0
-36 -466 0
-37 -467 0
-38 -468 0
-39 -469 0
-40 -470 0
-36 -481 0
-37 -482 0
-38 -483 0
-39 -484 0
-40 -485 0
-41 -136 0
-42 -137 0
-43 -138 0
-44 -139 0
-45 -140 0
-41 -146 0
-42 -147 0
-43 -148 0
-44 -149 0
-45 -150 0
-41 -211 0
-42 -212 0
-43 -213 0
-44 -214 0
-45 -215 0
-41 -246 0
-42 -247 0
-43 -248 0
-44 -249 0
-45 -250 0
-41 -261 0
-42 -262 0
-43 -263 0
-44 -264 0
-45 -265 0
-41 -266 0
-42 -267 0
-43 -268 0
-44 -269 0
-45 -270 0
-41 -281 0
-42 -282 0
-43 -283 0
-44 -284 0
-45 -285 0
-41 -361 0
-42 -362 0
-43 -363 0
-44 -364 0
-45 -365 0
-41 -431 0
-42 -432 0
-43 -433 0
-44 -434 0
-45 -435 0
-41 -436 0
-42 -437 0
-43 -438 0
-44 -439 0
-45 -440 0
-46 -146 0
-47 -147 0
-48 -148 0
-49 -149 0
-50 -150 0
-46 -151 0
-47 -152 0
-48 -153 0
-49 -154 0
-50 -155 0
-46 -206 0
-47 -207 0
-48 -208 0
-49 -209 0
-50 -210 0
-46 -226 0
-47 -227 0
-48 -228 0
-49 -229 0
-50 -230 0
-46 -286 0
-47 -287 0
-48 -288 0
-49 -289 0
-50 -290 0
-46 -316 0
-47 -317 0
-48 -318 0
-49 -319 0
-50 -320 0
-46 -466 0
-47 -467 0
-48 -468 0
-49 -469 0
-50 -470 0
-46 -471 0
-47 -472 0
-48 -473 0
-49 -474 0
-50 -475 0
-51 -81 0
-52 -82 0
-53 -83 0
-54 -84 0
-55 -85 0
-51 -86 0
-52 -87 0
-53 -88 0
-54 -89 0
-55 -90 0
-51 -96 0
-52 -97 0
-53 -98 0
-54 -99 0
-55 -100 0
-51 -111 0
-52 -112 0
-53 -113 0
-54 -114 0
-55 -115 0
-51 -151 0
-52 -152 0
-53 -153 0
-54 -154 0
-55 -155 0
-51 -176 0
-52 -177 0
-53 -178 0
-54 -179 0
-55 -180 0
-51 -226 0
-52 -227 0
-53 -228 0
-54 -229 0
-55 -230 0
-51 -431 0
-52 -432 0
-53 -433 0
-54 -434 0
-55 -435 0
-51 -461 0
-52 -462 0
-53 -463 0
-54 -464 0
-55 -465 0
-51 -476 0
-52 -477 0
-53 -478 0
-54 -479 0
-55 -480 0
-56 -111 0
-57 -112 0
-58 -113 0
-59 -114 0
-60 -115 0
-56 -131 0
-57 -132 0
-58 -133 0
-59 -134 0
-60 -135 0
-56 -166 0
-57 -167 0
-58 -168 0
-59 -169 0
-60 -170 0
-56 -311 0
-57 -312 0
-58 -313 0
-59 -314 0
-60 -315 0
-56 -401 0
-57 -402 0
-58 -403 0
-59 -404 0
-60 -405 0
-56 -411 0
-57 -412 0
-58 -413 0
-59 -414 0
-60 -415 0
-61 -291 0
-62 -292 0
-63 -293 0
-64 -294 0
-65 -295 0
-61 -316 0
-62 -317 0
-63 -318 0
-64 -319 0
-65 -320 0
-61 -351 0
-62 -352 0
-63 -353 0
-64 -354 0
-65 -355 0
-61 -371 0
-62 -372 0
-63 -373 0
-64 -374 0
-65 -375 0
-61 -381 0
-62 -382 0
-63 -383 0
-64 -384 0
-65 -385 0
-61 -396 0
-62 -397 0
-63 -398 0
-64 -399 0
-65 -400 0
-61 -446 0
-62 -447 0
-63 -448 0
-64 -449 0
-65 -450 0
-66 -296 0
-67 -297 0
-68 -298 0
-69 -299 0
-70 -300 0
-71 -256 0
-72 -257 0
-73 -258 0
-74 -259 0
-75 -260 0
-71 -286 0
-72 -287 0
-73 -288 0
-74 -289 0
-75 -290 0
-71 -386 0
-72 -387 0
-73 -388 0
-74 -389 0
-75 -390 0
-71 -416 0
-72 -417 0
-73 -418 0
-74 -419 0
-75 -420 0
-71 -446 0
-72 -447 0
-73 -448 0
-74 -449 0
-75 -450 0
-76 -171 0
-77 -172 0
-78 -173 0
-79 -174 0
-80 -175 0
-76 -301 0
-77 -302 0
-78 -303 0
-79 -304 0
-80 -305 0
-76 -366 0
-77 -367 0
-78 -368 0
-79 -369 0
-80 -370 0
-76 -396 0
-77 -397 0
-78 -398 0
-79 -399 0
-80 -400 0
-81 -146 0
-82 -147 0
-83 -148 0
-84 -149 0
-85 -150 0
-81 -211 0
-82 -212 0
-83 -213 0
-84 -214 0
-85 -215 0
-81 -226 0
-82 -227 0
-83 -228 0
-84 -229 0
-85 -230 0
-81 -271 0
-82 -272 0
-83 -273 0
-84 -274 0
-85 -275 0
-81 -291 0
-82 -292 0
-83 -293 0
-84 -294 0
-85 -295 0
-81 -401 0
-82 -402 0
-83 -403 0
-84 -404 0
-85 -405 0
-86 -141 0
-87 -142 0
-88 -143 0
-89 -144 0
-90 -145 0
-86 -246 0
-87 -247 0
-88 -248 0
-89 -249 0
-90 -250 0
-91 -141 0
-92 -142 0
-93 -143 0
-94 -144 0
-95 -145 0
-91 -361 0
-92 -362 0
-93 -363 0
-94 -364 0
-95 -365 0
-91 -461 0
-92 -462 0
-93 -463 0
-94 -464 0
-95 -465 0
-96 -251 0
-97 -252 0
-98 -253 0
-99 -254 0
-100 -255 0
-96 -261 0
-97 -262 0
-98 -263 0
-99 -264 0
-100 -265 0
-96 -266 0
-97 -267 0
-98 -268 0
-99 -269 0
-100 -270 0
-96 -271 0
-97 -272 0
-98 -273 0
-99 -274 0
-100 -275 0
-96 -291 0
-97 -292 0
-98 -293 0
-99 -294 0
-100 -295 0
-96 -321 0
-97 -322 0
-98 -323 0
-99 -324 0
-100 -325 0
-96 -376 0
-97 -377 0
-98 -378 0
-99 -379 0
-100 -380 0
-96 -391 0
-97 -392 0
-98 -393 0
-99 -394 0
-100 -395 0
-101 -126 0
-102 -127 0
-103 -128 0
-104 -129 0
-105 -130 0
-101 -131 0
-102 -132 0
-103 -133 0
-104 -134 0
-105 -135 0
-101 -166 0
-102 -167 0
-103 -168 0
-104 -169 0
-105 -170 0
-101 -181 0
-102 -182 0
-103 -183 0
-104 -184 0
-105 -185 0
-101 -391 0
-102 -392 0
-103 -393 0
-104 -394 0
-105 -395 0
-106 -151 0
-107 -152 0
-108 -153 0
-109 -154 0
-110 -155 0
-106 -226 0
-107 -227 0
-108 -228 0
-109 -229 0
-110 -230 0
-106 -256 0
-107 -257 0
-108 -258 0
-109 -259 0
-110 -260 0
-106 -276 0
-107 -277 0
-108 -278 0
-109 -279 0
-110 -280 0
-106 -301 0
-107 -302 0
-108 -303 0
-109 -304 0
-110 -305 0
-106 -396 0
-107 -397 0
-108 -398 0
-109 -399 0
-110 -400 0
-106 -461 0
-107 -462 0
-108 -463 0
-109 -464 0
-110 -465 0
-106 -481 0
-107 -482 0
-108 -483 0
-109 -484 0
-110 -485 0
-111 -136 0
-112 -137 0
-113 -138 0
-114 -139 0
-115 -140 0
-111 -301 0
-112 -302 0
-113 -303 0
-114 -304 0
-115 -305 0
-111 -361 0
-112 -362 0
-113 -363 0
-114 -364 0
-115 -365 0
-111 -391 0
-112 -392 0
-113 -393 0
-114 -394 0
-115 -395 0
-111 -431 0
-112 -432 0
-113 -433 0
-114 -434 0
-115 -435 0
-111 -471 0
-112 -472 0
-113 -473 0
-114 -474 0
-115 -475 0
-111 -486 0
-112 -487 0
-113 -488 0
-114 -489 0
-115 -490 0
-116 -141 0
-117 -142 0
-118 -143 0
-119 -144 0
-120 -145 0
-116 -171 0
-117 -172 0
-118 -173 0
-119 -174 0
-120 -175 0
-116 -181 0
-117 -182 0
-118 -183 0
-119 -184 0
-120 -185 0
-116 -216 0
-117 -217 0
-118 -218 0
-119 -219 0
-120 -220 0
-116 -226 0
-117 -227 0
-118 -228 0
-119 -229 0
-120 -230 0
-116 -266 0
-117 -267 0
-118 -268 0
-119 -269 0
-120 -270 0
-116 -371 0
-117 -372 0
-118 -373 0
-119 -374 0
-120 -375 0
-116 -411 0
-117 -412 0
-118 -413 0
-119 -414 0
-120 -415 0
-116 -416 0
-117 -417 0
-118 -418 0
-119 -419 0
-120 -420 0
-116 -466 0
-117 -467 0
-118 -468 0
-119 -469 0
-120 -470 0
-121 -366 0
-122 -367 0
-123 -368 0
-124 -369 0
-125 -370 0
-121 -381 0
-122 -382 0
-123 -383 0
-124 -384 0
-125 -385 0
-121 -421 0
-122 -422 0
-123 -423 0
-124 -424 0
-125 -425 0
-126 -181 0
-127 -182 0
-128 -183 0
-129 -184 0
-130 -185 0
-126 -201 0
-127 -202 0
-128 -203 0
-129 -204 0
-130 -205 0
-126 -236 0
-127 -237 0
-128 -238 0
-129 -239 0
-130 -240 0
-126 -461 0
-127 -462 0
-128 -463 0
-129 -464 0
-130 -465 0
-131 -221 0
-132 -222 0
-133 -223 0
-134 -224 0
-135 -225 0
-131 -366 0
-132 -367 0
-133 -368 0
-134 -369 0
-135 -370 0
-131 -371 0
-132 -372 0
-133 -373 0
-134 -374 0
-135 -375 0
-131 -436 0
-132 -437 0
-133 -438 0
-134 -439 0
-135 -440 0
-136 -181 0
-137 -182 0
-138 -183 0
-139 -184 0
-140 -185 0
-136 -311 0
-137 -312 0
-138 -313 0
-139 -314 0
-140 -315 0
-136 -356 0
-137 -357 0
-138 -358 0
-139 -359 0
-140 -360 0
-136 -441 0
-137 -442 0
-138 -443 0
-139 -444 0
-140 -445 0
-141 -191 0
-142 -192 0
-143 -193 0
-144 -194 0
-145 -195 0
-141 -331 0
-142 -332 0
-143 -333 0
-144 -334 0
-145 -335 0
-141 -376 0
-142 -377 0
-143 -378 0
-144 -379 0
-145 -380 0
-141 -411 0
-142 -412 0
-143 -413 0
-144 -414 0
-145 -415 0
-141 -456 0
-142 -457 0
-143 -458 0
-144 -459 0
-145 -460 0
-141 -471 0
-142 -472 0
-143 -473 0
-144 -474 0
-145 -475 0
-141 -486 0
-142 -487 0
-143 -488 0
-144 -489 0
-145 -490 0
-146 -176 0
-147 -177 0
-148 -178 0
-149 -179 0
-150 -180 0
-146 -216 0
-147 -217 0
-148 -218 0
-149 -219 0
-150 -220 0
-146 -226 0
-147 -227 0
-148 -228 0
-149 -229 0
-150 -230 0
-146 -311 0
-147 -312 0
-148 -313 0
-149 -314 0
-150 -315 0
-146 -476 0
-147 -477 0
-148 -478 0
-149 -479 0
-150 -480 0
-146 -491 0
-147 -492 0
-148 -493 0
-149 -494 0
-150 -495 0
-151 -196 0
-152 -197 0
-153 -198 0
-154 -199 0
-155 -200 0
-151 -386 0
-152 -387 0
-153 -388 0
-154 -389 0
-155 -390 0
-151 -421 0
-152 -422 0
-153 -423 0
-154 -424 0
-155 -425 0
-151 -436 0
-152 -437 0
-153 -438 0
-154 -439 0
-155 -440 0
-151 -476 0
-152 -477 0
-153 -478 0
-154 -479 0
-155 -480 0
-151 -491 0
-152 -492 0
-153 -493 0
-154 -494 0
-155 -495 0
-156 -231 0
-157 -232 0
-158 -233 0
-159 -234 0
-160 -235 0
-156 -316 0
-157 -317 0
-158 -318 0
-159 -319 0
-160 -320 0
-156 -321 0
-157 -322 0
-158 -323 0
-159 -324 0
-160 -325 0
-156 -341 0
-157 -342 0
-158 -343 0
-159 -344 0
-160 -345 0
-156 -391 0
-157 -392 0
-158 -393 0
-159 -394 0
-160 -395 0
-161 -256 0
-162 -257 0
-163 -258 0
-164 -259 0
-165 -260 0
-161 -311 0
-162 -312 0
-163 -313 0
-164 -314 0
-165 -315 0
-161 -396 0
-162 -397 0
-163 -398 0
-164 -399 0
-165 -400 0
-161 -406 0
-162 -407 0
-163 -408 0
-164 -409 0
-165 -410 0
-166 -206 0
-167 -207 0
-168 -208 0
-169 -209 0
-170 -210 0
-166 -226 0
-167 -227 0
-168 -228 0
-169 -229 0
-170 -230 0
-166 -231 0
-167 -232 0
-168 -233 0
-169 -234 0
-170 -235 0
-166 -256 0
-167 -257 0
-168 -258 0
-169 -259 0
-170 -260 0
-166 -321 0
-167 -322 0
-168 -323 0
-169 -324 0
-170 -325 0
-166 -326 0
-167 -327 0
-168 -328 0
-169 -329 0
-170 -330 0
-166 -371 0
-167 -372 0
-168 -373 0
-169 -374 0
-170 -375 0
-171 -226 0
-172 -227 0
-173 -228 0
-174 -229 0
-175 -230 0
-171 -246 0
-172 -247 0
-173 -248 0
-174 -249 0
-175 -250 0
-176 -271 0
-177 -272 0
-178 -273 0
-179 -274 0
-180 -275 0
-176 -471 0
-177 -472 0
-178 -473 0
-179 -474 0
-180 -475 0
-181 -256 0
-182 -257 0
-183 -258 0
-184 -259 0
-185 -260 0
-181 -276 0
-182 -277 0
-183 -278 0
-184 -279 0
-185 -280 0
-181 -316 0
-182 -317 0
-183 -318 0
-184 -319 0
-185 -320 0
-181 -346 0
-182 -347 0
-183 -348 0
-184 -349 0
-185 -350 0
-181 -406 0
-182 -407 0
-183 -408 0
-184 -409 0
-185 -410 0
-181 -491 0
-182 -492 0
-183 -493 0
-184 -494 0
-185 -495 0
-181 -496 0
-182 -497 0
-183 -498 0
-184 -499 0
-185 -500 0
-186 -231 0
-187 -232 0
-188 -233 0
-189 -234 0
-190 -235 0
-186 -246 0
-187 -247 0
-188 -248 0
-189 -249 0
-190 -250 0
-186 -256 0
-187 -257 0
-188 -258 0
-189 -259 0
-190 -260 0
-186 -266 0
-187 -267 0
-188 -268 0
-189 -269 0
-190 -270 0
-186 -326 0
-187 -327 0
-188 -328 0
-189 -329 0
-190 -330 0
-186 -381 0
-187 -382 0
-188 -383 0
-189 -384 0
-190 -385 0
-186 -391 0
-187 -392 0
-188 -393 0
-189 -394 0
-190 -395 0
-186 -441 0
-187 -442 0
-188 -443 0
-189 -444 0
-190 -445 0
-186 -461 0
-187 -462 0
-188 -463 0
-189 -464 0
-190 -465 0
-191 -251 0
-192 -252 0
-193 -253 0
-194 -254 0
-195 -255 0
-191 -261 0
-192 -262 0
-193 -263 0
-194 -264 0
-195 -265 0
-191 -496 0
-192 -497 0
-193 -498 0
-194 -499 0
-195 -500 0
-196 -281 0
-197 -282 0
-198 -283 0
-199 -284 0
-200 -285 0
-196 -296 0
-197 -297 0
-198 -298 0
-199 -299 0
-200 -300 0
-196 -346 0
-197 -347 0
-198 -348 0
-199 -349 0
-200 -350 0
-196 -361 0
-197 -362 0
-198 -363 0
-199 -364 0
-200 -365 0
-196 -471 0
-197 -472 0
-198 -473 0
-199 -474 0
-200 -475 0
-201 -251 0
-202 -252 0
-203 -253 0
-204 -254 0
-205 -255 0
-201 -451 0
-202 -452 0
-203 -453 0
-204 -454 0
-205 -455 0
-206 -231 0
-207 -232 0
-208 -233 0
-209 -234 0
-210 -235 0
-206 -236 0
-207 -237 0
-208 -238 0
-209 -239 0
-210 -240 0
-206 -346 0
-207 -347 0
-208 -348 0
-209 -349 0
-210 -350 0
-206 -386 0
-207 -387 0
-208 -388 0
-209 -389 0
-210 -390 0
-211 -331 0
-212 -332 0
-213 -333 0
-214 -334 0
-215 -335 0
-211 -346 0
-212 -347 0
-213 -348 0
-214 -349 0
-215 -350 0
-211 -361 0
-212 -362 0
-213 -363 0
-214 -364 0
-215 -365 0
-211 -406 0
-212 -407 0
-213 -408 0
-214 -409 0
-215 -410 0
-211 -476 0
-212 -477 0
-213 -478 0
-214 -479 0
-215 -480 0
-216 -401 0
-217 -402 0
-218 -403 0
-219 -404 0
-220 -405 0
-216 -426 0
-217 -427 0
-218 -428 0
-219 -429 0
-220 -430 0
-221 -306 0
-222 -307 0
-223 -308 0
-224 -309 0
-225 -310 0
-221 -311 0
-222 -312 0
-223 -313 0
-224 -314 0
-225 -315 0
-221 -436 0
-222 -437 0
-223 -438 0
-224 -439 0
-225 -440 0
-226 -256 0
-227 -257 0
-228 -258 0
-229 -259 0
-230 -260 0
-226 -371 0
-227 -372 0
-228 -373 0
-229 -374 0
-230 -375 0
-226 -376 0
-227 -377 0
-228 -378 0
-229 -379 0
-230 -380 0
-226 -421 0
-227 -422 0
-228 -423 0
-229 -424 0
-230 -425 0
-226 -476 0
-227 -477 0
-228 -478 0
-229 -479 0
-230 -480 0
-231 -261 0
-232 -262 0
-233 -263 0
-234 -264 0
-235 -265 0
-231 -266 0
-232 -267 0
-233 -268 0
-234 -269 0
-235 -270 0
-231 -376 0
-232 -377 0
-233 -378 0
-234 -379 0
-235 -380 0
-231 -391 0
-232 -392 0
-233 -393 0
-234 -394 0
-235 -395 0
-231 -436 0
-232 -437 0
-233 -438 0
-234 -439 0
-235 -440 0
-231 -441 0
-232 -442 0
-233 -443 0
-234 -444 0
-235 -445 0
-231 -456 0
-232 -457 0
-233 -458 0
-234 -459 0
-235 -460 0
-231 -461 0
-232 -462 0
-233 -463 0
-234 -464 0
-235 -465 0
-236 -406 0
-237 -407 0
-238 -408 0
-239 -409 0
-240 -410 0
-236 -436 0
-237 -437 0
-238 -438 0
-239 -439 0
-240 -440 0
-241 -346 0
-242 -347 0
-243 -348 0
-244 -349 0
-245 -350 0
-241 -366 0
-242 -367 0
-243 -368 0
-244 -369 0
-245 -370 0
-241 -411 0
-242 -412 0
-243 -413 0
-244 -414 0
-245 -415 0
-241 -486 0
-242 -487 0
-243 -488 0
-244 -489 0
-245 -490 0
-246 -301 0
-247 -302 0
-248 -303 0
-249 -304 0
-250 -305 0
-251 -476 0
-252 -477 0
-253 -478 0
-254 -479 0
-255 -480 0
-251 -491 0
-252 -492 0
-253 -493 0
-254 -494 0
-255 -495 0
-256 -286 0
-257 -287 0
-258 -288 0
-259 -289 0
-260 -290 0
-256 -301 0
-257 -302 0
-258 -303 0
-259 -304 0
-260 -305 0
-256 -321 0
-257 -322 0
-258 -323 0
-259 -324 0
-260 -325 0
-256 -341 0
-257 -342 0
-258 -343 0
-259 -344 0
-260 -345 0
-261 -291 0
-262 -292 0
-263 -293 0
-264 -294 0
-265 -295 0
-261 -396 0
-262 -397 0
-263 -398 0
-264 -399 0
-265 -400 0
-261 -431 0
-262 -432 0
-263 -433 0
-264 -434 0
-265 -435 0
-261 -441 0
-262 -442 0
-263 -443 0
-264 -444 0
-265 -445 0
-261 -471 0
-262 -472 0
-263 -473 0
-264 -474 0
-265 -475 0
-266 -306 0
-267 -307 0
-268 -308 0
-269 -309 0
-270 -310 0
-266 -321 0
-267 -322 0
-268 -323 0
-269 -324 0
-270 -325 0
-266 -331 0
-267 -332 0
-268 -333 0
-269 -334 0
-270 -335 0
-266 -341 0
-267 -342 0
-268 -343 0
-269 -344 0
-270 -345 0
-266 -351 0
-267 -352 0
-268 -353 0
-269 -354 0
-270 -355 0
-266 -476 0
-267 -477 0
-268 -478 0
-269 -479 0
-270 -480 0
-271 -301 0
-272 -302 0
-273 -303 0
-274 -304 0
-275 -305 0
-271 -406 0
-272 -407 0
-273 -408 0
-274 -409 0
-275 -410 0
-276 -396 0
-277 -397 0
-278 -398 0
-279 -399 0
-280 -400 0
-276 -436 0
-277 -437 0
-278 -438 0
-279 -439 0
-280 -440 0
-276 -476 0
-277 -477 0
-278 -478 0
-279 -479 0
-280 -480 0
-281 -376 0
-282 -377 0
-283 -378 0
-284 -379 0
-285 -380 0
-281 -381 0
-282 -382 0
-283 -383 0
-284 -384 0
-285 -385 0
-281 -411 0
-282 -412 0
-283 -413 0
-284 -414 0
-285 -415 0
-281 -451 0
-282 -452 0
-283 -453 0
-284 -454 0
-285 -455 0
-281 -496 0
-282 -497 0
-283 -498 0
-284 -499 0
-285 -500 0
-286 -381 0
-287 -382 0
-288 -383 0
-289 -384 0
-290 -385 0
-286 -431 0
-287 -432 0
-288 -433 0
-289 -434 0
-290 -435 0
-286 -481 0
-287 -482 0
-288 -483 0
-289 -484 0
-290 -485 0
-291 -361 0
-292 -362 0
-293 -363 0
-294 -364 0
-295 -365 0
-291 -376 0
-292 -377 0
-293 -378 0
-294 -379 0
-295 -380 0
-291 -396 0
-292 -397 0
-293 -398 0
-294 -399 0
-295 -400 0
-291 -486 0
-292 -487 0
-293 -488 0
-294 -489 0
-295 -490 0
-296 -386 0
-297 -387 0
-298 -388 0
-299 -389 0
-300 -390 0
-296 -411 0
-297 -412 0
-298 -413 0
-299 -414 0
-300 -415 0
-296 -416 0
-297 -417 0
-298 -418 0
-299 -419 0
-300 -420 0
-296 -436 0
-297 -437 0
-298 -438 0
-299 -439 0
-300 -440 0
-296 -456 0
-297 -457 0
-298 -458 0
-299 -459 0
-300 -460 0
-301 -486 0
-302 -487 0
-303 -488 0
-304 -489 0
-305 -490 0
-306 -401 0
-307 -402 0
-308 -403 0
-309 -404 0
-310 -405 0
-306 -471 0
-307 -472 0
-308 -473 0
-309 -474 0
-310 -475 0
-306 -486 0
-307 -487 0
-308 -488 0
-309 -489 0
-310 -490 0
-311 -336 0
-312 -337 0
-313 -338 0
-314 -339 0
-315 -340 0
-311 -341 0
-312 -342 0
-313 -343 0
-314 -344 0
-315 -345 0
-311 -366 0
-312 -367 0
-313 -368 0
-314 -369 0
-315 -370 0
-311 -396 0
-312 -397 0
-313 -398 0
-314 -399 0
-315 -400 0
-321 -381 0
-322 -382 0
-323 -383 0
-324 -384 0
-325 -385 0
-321 -451 0
-322 -452 0
-323 -453 0
-324 -454 0
-325 -455 0
-326 -376 0
-327 -377 0
-328 -378 0
-329 -379 0
-330 -380 0
-326 -431 0
-327 -432 0
-328 -433 0
-329 -434 0
-330 -435 0
-331 -356 0
-332 -357 0
-333 -358 0
-334 -359 0
-335 -360 0
-331 -381 0
-332 -382 0
-333 -383 0
-334 -384 0
-335 -385 0
-331 -446 0
-332 -447 0
-333 -448 0
-334 -449 0
-335 -450 0
-336 -381 0
-337 -382 0
-338 -383 0
-339 -384 0
-340 -385 0
-336 -496 0
-337 -497 0
-338 -498 0
-339 -499 0
-340 -500 0
-341 -481 0
-342 -482 0
-343 -483 0
-344 -484 0
-345 -485 0
-341 -496 0
-342 -497 0
-343 -498 0
-344 -499 0
-345 -500 0
-346 -446 0
-347 -447 0
-348 -448 0
-349 -449 0
-350 -450 0
-346 -496 0
-347 -497 0
-348 -498 0
-349 -499 0
-350 -500 0
-356 -381 0
-357 -382 0
-358 -383 0
-359 -384 0
-360 -385 0
-356 -386 0
-357 -387 0
-358 -388 0
-359 -389 0
-360 -390 0
-356 -421 0
-357 -422 0
-358 -423 0
-359 -424 0
-360 -425 0
-356 -451 0
-357 -452 0
-358 -453 0
-359 -454 0
-360 -455 0
-356 -476 0
-357 -477 0
-358 -478 0
-359 -479 0
-360 -480 0
-361 -411 0
-362 -412 0
-363 -413 0
-364 -414 0
-365 -415 0
-361 -491 0
-362 -492 0
-363 -493 0
-364 -494 0
-365 -495 0
-366 -401 0
-367 -402 0
-368 -403 0
-369 -404 0
-370 -405 0
-366 -431 0
-367 -432 0
-368 -433 0
-369 -434 0
-370 -435 0
-366 -436 0
-367 -437 0
-368 -438 0
-369 -439 0
-370 -440 0
-366 -476 0
-367 -477 0
-368 -478 0
-369 -479 0
-370 -480 0
-371 -411 0
-372 -412 0
-373 -413 0
-374 -414 0
-375 -415 0
-371 -446 0
-372 -447 0
-373 -448 0
-374 -449 0
-375 -450 0
-371 -466 0
-372 -467 0
-373 -468 0
-374 -469 0
-375 -470 0
-376 -411 0
-377 -412 0
-378 -413 0
-379 -414 0
-380 -415 0
-376 -471 0
-377 -472 0
-378 -473 0
-379 -474 0
-380 -475 0
-376 -491 0
-377 -492 0
-378 -493 0
-379 -494 0
-380 -495 0
-386 -426 0
-387 -427 0
-388 -428 0
-389 -429 0
-390 -430 0
-396 -486 0
-397 -487 0
-398 -488 0
-399 -489 0
-400 -490 0
-401 -461 0
-402 -462 0
-403 -463 0
-404 -464 0
-405 -465 0
-406 -441 0
-407 -442 0
-408 -443 0
-409 -444 0
-410 -445 0
-406 -476 0
-407 -477 0
-408 -478 0
-409 -479 0
-410 -480 0
-411 -491 0
-412 -492 0
-413 -493 0
-414 -494 0
-415 -495 0
-416 -491 0
-417 -492 0
-418 -493 0
-419 -494 0
-420 -495 0
-426 -466 0
-427 -467 0
-428 -468 0
-429 -469 0
-430 -470 0
-426 -476 0
-427 -477 0
-428 -478 0
-429 -479 0
-430 -480 0
-436 -471 0
-437 -472 0
-438 -473 0
-439 -474 0
-440 -475 0
-436 -476 0
-437 -477 0
-438 -478 0
-439 -479 0
-440 -480 0
-446 -476 0
-447 -477 0
-448 -478 0
-449 -479 0
-450 -480 0
-446 -486 0
-447 -487 0
-448 -488 0
-449 -489 0
-450 -490 0
-451 -486 0
-452 -487 0
-453 -488 0
-454 -489 0
-455 -490 0
